Route #1: 33 35 43 7 51 29
Route #2: 47 44 10 27 8 5 37
Route #3: 6 1 18 30 20 42
Route #4: 3 31 24 28 11 21 14 39 23
Route #5: 45 12 50 26 46 32 34 38 48 2
Route #6: 16 9 13 19 15 49 17 22 4
Route #7: 40 36 25 41
Cost 766